c random clauses
p cnf 22 16
-22 -20 -3 -1 8 12 14 15 0
-22 -19 -15 -6 -2 5 12 13 0
-22 1 4 7 12 17 18 21 0
-21 -12 -11 -6 1 15 18 20 0
-21 -7 -4 -2 -1 15 17 22 0
-20 -19 -16 -5 -2 -1 11 15 0
-20 -14 -6 -5 -1 3 8 18 0
-18 -15 -7 -6 -1 8 12 16 0
-18 -12 -11 -6 -3 9 15 21 0
-15 -10 -4 -2 -1 9 11 13 0
-15 -7 -5 -3 12 16 17 18 0
-14 -9 -8 -7 -5 -1 16 22 0
-13 -7 -6 -2 8 12 17 21 0
-11 -3 8 10 13 17 20 21 0
-10 -9 -8 -4 6 13 14 20 0
-9 4 5 8 14 18 19 22 0
